%
% Generated Sudoku 16x16
% Density approximation: 0.30
%
x = array2d(1..n, 1..n, [
  10,   _,   8,   4,   _,  11,   _,   _,   _,   _,   _,   _,   _,   _,   _,   _,
   _,   _,   _,   _,   _,   _,   8,   _,   _,   _,   _,   _,   _,  10,   _,   _,
   _,   _,   _,   _,   _,   _,   _,   _,   _,   8,   _,   _,  13,   _,   _,   _,
   2,   _,  14,   _,   1,  10,   _,   3,  16,   _,  11,   _,   7,  12,   _,   _,
   _,   _,   _,   _,   _,  16,   _,   _,  15,   2,   _,   8,  12,  13,   _,   3,
   _,   _,   _,   2,  14,   _,   _,  11,   _,  16,   _,   _,   _,   _,   6,   _,
   _,  15,  10,  16,   9,   _,   2,   _,   _,   5,   _,  12,   _,   _,   7,   _,
   _,   _,   6,   5,   7,  13,  12,   _,   _,   _,   _,   _,   _,   _,   _,   _,
   _,   _,   _,   _,   _,   _,   6,   9,   _,   _,  13,   _,   _,   _,   _,   _,
   _,   _,   _,   _,   _,   _,   _,   _,  14,   _,   _,   _,   9,   _,   _,   2,
   _,   4,   _,   _,  16,   _,   _,   _,   _,   _,   _,   _,   5,  14,   _,   _,
   _,   _,   _,   _,   4,   _,   5,  10,   _,   _,   _,   _,  16,   _,   _,   _,
   _,   _,   _,   _,   _,   _,   _,   _,   4,   _,   _,  15,   _,   7,   _,   1,
   _,  12,   _,   _,  10,  15,   _,   7,   _,   9,   _,   _,   _,   _,   2,  13,
  11,   _,   _,  15,   _,  12,  13,  16,   _,   _,   8,   _,  10,   _,   _,   _,
  14,   _,   _,   _,   _,   _,   _,   1,   _,   _,   _,   _,  11,   _,   _,   _
]);

n = 16;
